38 16
14 624
5 651
5 149
8 51
2 502
11 67
8 575
4 840
8 343
2 512
12 533
5 112
6 819
9 639
5 863
13 903
10 601
14 577
6 222
14 864
11 476
5 902
5 602
1 75
10 479
1 539
5 891
13 472
9 349
5 371
7 3
12 389
10 243
3 908
1 178
4 247
1 677
4 867
